1 1 2 0
1 -1 3 0
1 4 -1 0
1 4 2 0
1 5 6 0
1 5 7 0
1 -5 8 0
1 5 9 0
1 5 10 0
1 5 2 0
1 8 6 0
1 -8 -10 0
1 -8 -11 0
1 8 5 0
1 12 13 0
1 12 -14 0
1 12 4 0
1 12 -15 0
1 -12 -16 0
1 12 17 0
1 12 3 0
1 -3 8 0
1 3 12 0
1 3 -16 0
1 -3 17 0
1 -3 5 0
1 9 -18 0
1 9 -4 0
1 -9 -19 0
1 9 15 0
1 -9 5 0
1 -9 -1 0
1 -9 -2 0
1 -2 -18 0
1 2 4 0
1 -2 -20 0
1 -17 14 0
1 -14 6 0
1 -14 10 0
1 -14 3 0
1 16 13 0
1 16 21 0
1 16 -11 0
1 16 22 0
1 16 23 0
1 16 -3 0
1 -13 -6 0
1 13 -18 0
1 -13 -24 0
1 13 -11 0
1 -13 -23 0
1 11 25 0
1 -11 -8 0
1 11 -26 0
1 -11 27 0
1 11 16 0
1 -11 -28 0
1 -7 -29 0
1 -7 -25 0
1 7 -11 0
1 -7 16 0
1 7 -5 0
1 -7 28 0
1 10 30 0
1 10 -26 0
1 10 28 0
1 6 31 0
1 -6 30 0
1 6 -26 0
1 -6 -32 0
1 -33 7 0
1 -33 21 0
1 25 33 0
1 25 -11 0
1 -25 -34 0
1 -27 -7 0
1 27 -34 0
1 -29 31 0
1 29 -7 0
1 29 27 0
1 23 -25 0
1 -23 -13 0
1 -23 -24 0
1 23 -27 0
1 -24 13 0
1 -24 -33 0
1 34 -25 0
1 34 13 0
1 -34 35 0
1 -34 28 0
1 21 -25 0
1 21 35 0
1 -21 26 0
1 21 -27 0
1 21 36 0
1 20 37 0
1 20 38 0
1 20 39 0
1 20 -2 0
1 38 -40 0
1 -22 18 0
1 -22 41 0
1 22 42 0
1 22 -9 0
1 22 -39 0
1 -22 -43 0
1 -18 39 0
1 -18 -44 0
1 18 -9 0
1 -18 -22 0
1 -18 -45 0
1 18 43 0
1 -18 2 0
1 44 30 0
1 -44 -22 0
1 -44 20 0
1 -39 -32 0
1 37 38 0
1 37 22 0
1 37 -20 0
1 40 -38 0
1 15 6 0
1 -15 -44 0
1 -15 9 0
1 15 -12 0
1 -15 10 0
1 -15 -33 0
1 -15 -39 0
1 30 -43 0
1 -30 3 0
1 -32 -31 0
1 -32 44 0
1 32 41 0
1 -32 42 0
1 -32 -46 0
1 32 10 0
1 32 -39 0
1 32 47 0
1 31 -48 0
1 -31 6 0
1 31 -44 0
1 31 -41 0
1 31 42 0
1 -31 -19 0
1 -31 -10 0
1 -31 32 0
1 -31 -43 0
1 31 47 0
1 -42 -26 0
1 -42 22 0
1 42 -36 0
1 43 -18 0
1 -43 35 0
1 -43 32 0
1 -43 36 0
1 -41 32 0
1 41 22 0
1 41 -45 0
1 -26 48 0
1 -26 6 0
1 -26 11 0
1 26 28 0
1 -28 6 0
1 28 -48 0
1 -28 -7 0
1 -28 21 0
1 -28 -42 0
1 28 19 0
1 28 -10 0
1 28 11 0
1 -28 -34 0
1 -28 43 0
1 35 48 0
1 35 46 0
1 35 -43 0
1 35 47 0
1 36 21 0
1 -36 42 0
1 -36 -19 0
1 36 -34 0
1 -46 -48 0
1 46 -31 0
1 46 -35 0
1 46 -36 0
1 -46 28 0
1 -48 -35 0
1 -48 46 0
1 48 -32 0
1 48 28 0
1 19 -9 0
1 -19 -26 0
1 -19 32 0
1 -47 -31 0
1 -47 -19 0
1 -47 32 0
1 47 2 0
